3 
4  40 58 
5  20 36 52 
6  07 22 37 52 
7  07 22 37 52 
8  07 22 37 52 
9  07 22 37 53 
10  08 23 38 53 
11  08 23 38 53 
12  08 23 38 53 
13  09 24 39 54 
14  09 24 39 54 
15  08 23 38 53 
16  08 23 38 53 
17  08 23 38 53 
18  08 23 38 54 
19  08 23 38 53 
20  08 23 38 53 
21  08 23 38 53 
22  08 27 42 57 
23 
0 
